(declare-const BAV1 Bool)
(declare-const BAV2 Bool)
(declare-const GEN6 Real)
(declare-const GEN5 Real)
(declare-const GEN4 Real)
(declare-const GEN3 Real)
(declare-const GEN2 Real)
(declare-const GEN1 Real)
(set-option :pp.max-depth 100)
(declare-const skoX Real)
(poly/factor (+ (* 90000000.0 skoX) (* (- 29.0) skoX skoX skoX)))
(poly/factor (+ (* (- 90000000.0) skoX) (* 29.0 skoX skoX skoX)))
(push)
(assert (> (+ (* GEN1 skoX) (* (- GEN2) skoX skoX skoX)) GEN3))
(apply (and-then simplify factor))
(pop)
(push)
(assert (> (+ (* (- GEN4) skoX) (* GEN5 skoX skoX skoX)) GEN6))
(apply (and-then simplify factor))
(pop)
(assert (= BAV1 (> (+ (* GEN1 skoX) (* (- GEN2) skoX skoX skoX)) GEN3)))
(assert (= BAV2 (> (+ (* (- GEN4) skoX) (* GEN5 skoX skoX skoX)) GEN6)))